out/bwp_10_12_1_lp.out
5
3 -0    3 2
-0 3    2 3
3 3    5 3
-0 4    0 4
3 4    3 4
4 4    4 4
4 -0    5 1
6 -0    7 1
8 -0    9 1
6 3    7 4
8 3    9 4
-0 -0    2 2
